n_res = 4;
rcap = [21, 27, 61, 42];
rtype = [1, 1, 2, 2];
n_tasks = 16;
modes = [ {1, 2}, {3, 4}, {5, 6}, {7, 8}, {9, 10}, {11, 12}, {13, 14}, {15, 16}, {17, 18}, {19, 20}, {21, 22}, {23, 24}, {25, 26}, {27, 28}, {29, 30}, {31, 32} ];
succ = [ {6, 10, 13}, {9}, {4, 5, 8}, {7, 9}, {11, 15}, {8, 14}, {11, 12, 14}, {12}, {10, 12, 13}, {11}, {16}, {15, 16}, {14, 15, 16}, {}, {}, {} ];
n_opt = 32;
dur = [1, 10, 9, 9, 6, 10, 3, 6, 3, 8, 2, 4, 5, 9, 6, 7, 7, 9, 8, 9, 4, 8, 2, 9, 6, 8, 1, 6, 1, 9, 7, 10];
rreq = [|  8,  6,  8,  0,  5,  4,  3,  0,  0,  0,  8,  0,  2,  2,  6,  4,  0,  0,  0,  0,  9,  5,  9,  0,  5,  4,  0,  0,  6,  0,  0,  9
        |  0,  0,  0,  6,  0,  0,  0,  8,  8,  8,  0,  7,  0,  0,  0,  0,  9,  5, 10,  9,  0,  0,  0,  7,  0,  0, 10,  7,  0,  9,  3,  0
        |  9,  0,  8, 10,  7,  1,  6,  0, 10,  4,  4,  0,  8,  0,  8,  7,  0,  0,  8,  6,  0, 10,  5,  4,  0,  0,  0,  0,  6,  0,  0,  0
        |  0,  6,  0,  0,  0,  0,  0,  4,  0,  0,  0,  8,  0,  4,  0,  0,  6,  5,  0,  0,  7,  0,  0,  0,  8,  5,  8,  6,  0,  5,  8,  4 |];
